letting n =  10
letting blocks =  [[1, 4], [1, 5], [1, 6], [1, 7], [1, 9], [1, 10], [2, 4], [3, 1], [3, 3], [3, 8], [3, 10], [4, 1], [4, 2], [4, 4], [4, 5], [4, 8], [4, 9], [5, 9], [6, 1], [6, 2], [6, 5], [6, 9], [7, 1], [7, 4], [7, 7], [7, 8], [8, 5], [8, 6], [8, 7], [8, 10], [9, 1], [9, 2], [9, 3], [10, 4], [10, 6], [10, 7], [10, 8], [10, 9]]
